0 
24 
22 
23 
5 
11 
23 
26 
9 
 23 
 9 
 14 
 16 
 12 
 2 
 2 
 6 
 20 
 26 
 12 
 15 
 13 
 26 
 17 
 7 
 12 
 4 
 4 
 20 
 10 
 9 
 2 
 9 
 1 
 2 
 2 
 12 
 14 
 23 
 21 
 13 
 13 
 23 
 3 
 6 
 23 
 11 
 2 
 7 
 13 
 10 
 3 
 6 
 13 
 2 
 14 
 7 
 21 
 7 
 22 
 13 
 22 
 18 
 22 
 6 
 2 
 11 
 5 
 9 
 9 
 5 
 12 
 2 
 12 
 19 
 6 
 14 
 2 
 2 
 24 
